Name:		mgval_0.45_8A
Optimal value:	-1
#Vehicles:	3
Capacity:	200
Depot Node:	1
#Nodes:		30
#Edges:		20
#Arcs:		76
#Required N:	24
#Required E:	11
#Required A:	41

ReN.	DEMAND	S. COST
N2	4	4
N3	9	9
N4	6	6
N5	24	24
N6	17	17
N7	14	14
N8	28	28
N11	7	7
N12	13	13
N13	3	3
N14	4	4
N16	5	5
N18	13	13
N19	9	9
N20	8	8
N21	5	5
N22	26	26
N23	5	5
N24	9	9
N26	10	10
N27	9	9
N28	7	7
N29	11	11
N30	7	7

ReE.	FROM N.	TO N.	T. COST	DEMAND	S. COST
E10	14	17	4	8	8
E11	22	25	2	6	6
E12	16	20	3	5	5
E13	8	14	7	12	12
E14	25	29	3	5	5
E15	8	15	10	16	16
E16	13	16	8	10	10
E17	1	2	4	9	9
E18	1	9	10	16	16
E19	17	18	5	10	10
E20	28	29	7	10	10

EDGE	FROM N.	TO N.	T. COST
NrE1	5	8	8
NrE2	18	23	3
NrE3	6	11	7
NrE4	7	8	8
NrE5	8	13	6
NrE6	23	30	3
NrE7	22	29	4
NrE8	26	30	3
NrE9	8	9	7

ReA.	FROM N.	TO N.	T. COST	DEMAND	S. COST
A36	10	9	3	10	10
A37	27	24	5	5	5
A38	20	24	2	2	2
A39	24	28	2	3	3
A40	23	26	7	5	5
A41	8	1	7	5	5
A42	15	9	3	4	4
A43	1	8	7	5	5
A44	21	16	7	4	4
A45	16	21	7	4	4
A46	13	14	5	4	4
A47	14	15	9	10	10
A48	17	13	7	6	6
A49	22	17	5	6	6
A50	28	27	10	6	6
A51	21	28	5	4	4
A52	15	18	3	3	3
A53	11	20	10	6	6
A54	2	3	3	3	3
A55	17	16	9	7	7
A56	15	10	5	7	7
A57	16	17	9	6	6
A58	7	4	1	2	2
A59	13	17	7	6	6
A60	25	30	1	2	2
A61	30	25	1	2	2
A62	21	20	7	5	5
A63	26	23	7	5	5
A64	9	2	5	4	4
A65	18	15	3	4	4
A66	11	16	5	12	12
A67	19	15	7	6	6
A68	7	6	3	3	3
A69	24	27	5	4	4
A70	15	19	7	5	5
A71	10	3	6	6	6
A72	4	5	5	5	5
A73	18	19	2	3	3
A74	20	11	10	7	7
A75	10	19	10	6	6
A76	9	15	3	4	4

ARC	FROM N.	TO N.	T. COST
NrA1	1	5	3
NrA2	18	26	9
NrA3	5	4	5
NrA4	24	21	5
NrA5	14	13	5
NrA6	11	12	5
NrA7	22	21	5
NrA8	19	18	2
NrA9	30	29	6
NrA10	4	6	3
NrA11	20	21	7
NrA12	26	18	9
NrA13	29	21	8
NrA14	6	4	3
NrA15	6	7	3
NrA16	24	20	2
NrA17	27	20	5
NrA18	22	23	10
NrA19	28	24	2
NrA20	28	21	5
NrA21	4	7	1
NrA22	12	16	6
NrA23	12	7	8
NrA24	7	12	8
NrA25	12	13	3
NrA26	19	10	10
NrA27	13	12	3
NrA28	27	28	10
NrA29	29	30	6
NrA30	2	9	5
NrA31	3	10	6
NrA32	21	29	8
NrA33	3	2	3
NrA34	16	12	6
NrA35	20	27	5
